NAME: Random_90_3
ELLAPSED_TIME_(ms): 1
TOUR_SIZE: 2621.5122
TOUR_SECTION
0
42
53
8
10
17
27
39
61
80
12
41
33
16
20
89
23
70
19
43
24
2
4
73
66
56
11
30
67
31
32
50
21
38
64
14
44
47
1
54
71
81
68
46
29
83
25
69
88
65
48
49
15
79
28
55
22
60
37
75
57
36
6
86
59
82
78
51
62
7
18
9
76
74
52
87
77
72
85
34
63
5
58
84
3
40
45
26
13
35
0
EOF
